(set-logic QF_UF)
(declare-fun A0 () Bool)
(declare-fun A1 () Bool)
(declare-fun A2 () Bool)
(declare-fun A3 () Bool)
(declare-fun A4 () Bool)
(declare-fun A5 () Bool)
(declare-fun A6 () Bool)
(declare-fun A8 () Bool)
(declare-fun A9 () Bool)
(declare-fun A10 () Bool)
(declare-fun A11 () Bool)
(declare-fun A12 () Bool)
(declare-fun A13 () Bool)
(declare-fun A14 () Bool)
(declare-fun A15 () Bool)
(declare-fun A16 () Bool)
(declare-fun A17 () Bool)
(declare-fun A18 () Bool)
(declare-fun A19 () Bool)
(declare-fun A20 () Bool)
(declare-fun A21 () Bool)
(declare-fun A22 () Bool)
(declare-fun A23 () Bool)
(declare-fun A24 () Bool)
(assert (let ((.def_0 (or A15 A17))) (let ((.def_1 (not .def_0))) (let ((.def_2 (not A21))) (let ((.def_3 (= .def_2 A21))) (let ((.def_4 (not .def_3))) (let ((.def_5 (or .def_4 .def_1))) (let ((.def_6 (not .def_5))) (let ((.def_7 (or A19 A23))) (let ((.def_8 (not .def_7))) (let ((.def_9 (not A1))) (let ((.def_10 (or .def_9 A11))) (let ((.def_11 (not .def_10))) (let ((.def_12 (or .def_11 .def_8))) (let ((.def_13 (not .def_12))) (let ((.def_14 (or .def_13 .def_6))) (let ((.def_15 (not A24))) (let ((.def_16 (and .def_15 A22))) (let ((.def_17 (not .def_16))) (let ((.def_18 (and A6 A14))) (let ((.def_19 (not .def_18))) (let ((.def_20 (or .def_19 .def_17))) (let ((.def_21 (not .def_20))) (let ((.def_22 (not A5))) (let ((.def_23 (or .def_22 A18))) (let ((.def_24 (not A19))) (let ((.def_25 (not A3))) (let ((.def_26 (and .def_25 .def_24))) (let ((.def_27 (not .def_26))) (let ((.def_28 (and .def_27 .def_23))) (let ((.def_29 (not .def_28))) (let ((.def_30 (and .def_29 .def_21))) (let ((.def_31 (or .def_30 .def_14))) (let ((.def_32 (not .def_31))) (let ((.def_33 (not A8))) (let ((.def_34 (and A20 .def_33))) (let ((.def_35 (not .def_34))) (let ((.def_36 (or A10 A2))) (let ((.def_37 (not .def_36))) (let ((.def_38 (= .def_37 .def_35))) (let ((.def_39 (not A10))) (let ((.def_40 (and A15 .def_39))) (let ((.def_41 (not A16))) (let ((.def_42 (not A17))) (let ((.def_43 (or .def_42 .def_41))) (let ((.def_44 (or .def_43 .def_40))) (let ((.def_45 (not .def_44))) (let ((.def_46 (or .def_45 .def_38))) (let ((.def_47 (not .def_46))) (let ((.def_48 (not A6))) (let ((.def_49 (and A15 .def_48))) (let ((.def_50 (not A13))) (let ((.def_51 (and A0 .def_50))) (let ((.def_52 (not .def_51))) (let ((.def_53 (and .def_52 .def_49))) (let ((.def_54 (= A9 A4))) (let ((.def_55 (not A20))) (let ((.def_56 (= .def_55 A24))) (let ((.def_57 (not .def_56))) (let ((.def_58 (or .def_57 .def_54))) (let ((.def_59 (not .def_58))) (let ((.def_60 (or .def_59 .def_53))) (let ((.def_61 (not .def_60))) (let ((.def_62 (and .def_61 .def_47))) (let ((.def_63 (and .def_62 .def_32))) (let ((.def_64 (not .def_63))) (let ((.def_65 (and A9 A18))) (let ((.def_66 (not .def_65))) (let ((.def_67 (= A16 A11))) (let ((.def_68 (not .def_67))) (let ((.def_69 (and .def_68 .def_66))) (let ((.def_70 (not A22))) (let ((.def_71 (and .def_70 .def_41))) (let ((.def_72 (or A4 A13))) (let ((.def_73 (or .def_72 .def_71))) (let ((.def_74 (or .def_73 .def_69))) (let ((.def_75 (not .def_74))) (let ((.def_76 (not A4))) (let ((.def_77 (and .def_76 A0))) (let ((.def_78 (or .def_24 A4))) (let ((.def_79 (not .def_78))) (let ((.def_80 (or .def_79 .def_77))) (let ((.def_81 (and .def_24 .def_50))) (let ((.def_82 (not A9))) (let ((.def_83 (and .def_82 .def_50))) (let ((.def_84 (not .def_83))) (let ((.def_85 (and .def_84 .def_81))) (let ((.def_86 (not .def_85))) (let ((.def_87 (= .def_86 .def_80))) (let ((.def_88 (and .def_87 .def_75))) (let ((.def_89 (not .def_88))) (let ((.def_90 (and A5 .def_24))) (let ((.def_91 (not .def_90))) (let ((.def_92 (or A2 A0))) (let ((.def_93 (not .def_92))) (let ((.def_94 (or .def_93 .def_91))) (let ((.def_95 (not .def_94))) (let ((.def_96 (= .def_39 A11))) (let ((.def_97 (not .def_96))) (let ((.def_98 (not A12))) (let ((.def_99 (not A18))) (let ((.def_100 (and .def_99 .def_98))) (let ((.def_101 (and .def_100 .def_97))) (let ((.def_102 (not .def_101))) (let ((.def_103 (and .def_102 .def_95))) (let ((.def_104 (or .def_48 .def_22))) (let ((.def_105 (not A23))) (let ((.def_106 (and .def_105 A15))) (let ((.def_107 (not .def_106))) (let ((.def_108 (or .def_107 .def_104))) (let ((.def_109 (and A6 .def_15))) (let ((.def_110 (not .def_109))) (let ((.def_111 (and .def_24 .def_70))) (let ((.def_112 (and .def_111 .def_110))) (let ((.def_113 (not .def_112))) (let ((.def_114 (and .def_113 .def_108))) (let ((.def_115 (not .def_114))) (let ((.def_116 (or .def_115 .def_103))) (let ((.def_117 (not .def_116))) (let ((.def_118 (or .def_117 .def_89))) (let ((.def_119 (not .def_118))) (let ((.def_120 (and .def_119 .def_64))) (let ((.def_121 (not .def_120))) .def_121)))))))))))))))))))))))))))))))))))))))))))))))))))))))))))))))))))))))))))))))))))))))))))))))))))))))))))))))))))))))))))
(check-sat)
